(set-logic HORN)
(set-info :source |
    Benchmark: C_VC
    Output by Princess (http://www.philipp.ruemmer.org/princess.shtml)
|)
(set-info :status sat)
(declare-heap Heap Addr HeapObject
 defObj
 ((HeapObject 0)) (
  (
   (O_Int (getInt Int))
   (O_UInt (getUInt Int))
   (O_Addr (getAddr Addr))
   (defObj)
  )
))
(declare-fun inv_main14 (Heap Int Int Int Int AddrRange Int) Bool)
(declare-fun inv_main17 (Heap Int Int Int Int AddrRange Int) Bool)
(declare-fun inv_main18 (Heap Int Int Int Int AddrRange Int) Bool)
(declare-fun inv_main26 (Heap Int Int Int Int AddrRange Int) Bool)
(declare-fun inv_main28 (Heap Int Int Int Int AddrRange Int) Bool)
(declare-fun inv_main3 (Heap Int Int Int Int AddrRange) Bool)
(assert (forall ((var0 Int) (var1 Int) (var2 Int) (var3 Heap)) (or (not (and (= var3 emptyHeap) (= var2 1000000))) (inv_main3 (newBatchHeap (batchAlloc emptyHeap (O_Int var1) var2)) var2 var0 0 0 (newAddrRange (batchAlloc emptyHeap (O_Int var1) var2))))))
(assert (forall ((var0 Int) (var1 AddrRange) (var2 Int) (var3 Int) (var4 Int) (var5 Int) (var6 Heap)) (or (not (and (inv_main28 var6 var5 var4 var3 var2 var1 var0) (<= 0 (+ (+ var5 (* (- 1) (+ var4 1))) (- 1))))) (inv_main26 var6 var5 (+ var4 1) var3 var2 var1 var0))))
(assert (forall ((var0 Int) (var1 AddrRange) (var2 Int) (var3 Int) (var4 Heap) (var5 Int) (var6 Int) (var7 Int) (var8 Int) (var9 AddrRange) (var10 Int) (var11 Int) (var12 Int) (var13 Int) (var14 Heap)) (or (not (and (inv_main17 var14 var13 var12 var11 var10 var9 var8) (and (<= 0 (+ var7 (- 1))) (and (not (<= 0 (+ (+ var7 (* (- 1) (+ var6 1))) (- 1)))) (and (and (= var5 0) (is-O_Int (read var14 (nthAddrRange var9 var12)))) (and (and (and (and (and (and (and (= var4 var14) (= var7 var13)) (= var6 var12)) (= var3 var11)) (= var2 var10)) (= var1 var9)) (= var0 var8)) (= var5 (getInt (read var14 (nthAddrRange var9 var12)))))))))) (inv_main26 var4 var7 0 var3 (+ var2 1) var1 var0))))
(assert (forall ((var0 Int) (var1 AddrRange) (var2 Int) (var3 Int) (var4 Heap) (var5 Int) (var6 Int) (var7 Int) (var8 Int) (var9 AddrRange) (var10 Int) (var11 Int) (var12 Int) (var13 Int) (var14 Heap)) (or (not (and (inv_main17 var14 var13 var12 var11 var10 var9 var8) (and (<= 0 (+ var7 (- 1))) (and (not (<= 0 (+ (+ var7 (* (- 1) (+ var6 1))) (- 1)))) (and (and (not (= var5 0)) (is-O_Int (read var14 (nthAddrRange var9 var12)))) (and (and (and (and (and (and (and (= var4 var14) (= var7 var13)) (= var6 var12)) (= var3 var11)) (= var2 var10)) (= var1 var9)) (= var0 var8)) (= var5 (getInt (read var14 (nthAddrRange var9 var12)))))))))) (inv_main26 var4 var7 0 var3 var2 var1 var0))))
(assert (forall ((var0 Int) (var1 Int) (var2 AddrRange) (var3 Int) (var4 Int) (var5 Int) (var6 Heap) (var7 Int) (var8 Int) (var9 AddrRange) (var10 Int) (var11 Int) (var12 Int) (var13 Int) (var14 Heap)) (or (not (and (inv_main3 var14 var13 var12 var11 var10 var9) (and (<= 0 (+ var8 (- 1))) (and (not (<= 0 (+ var8 (- 1)))) (and (not (= var7 0)) (and (and (and (and (and (and (and (= var6 var14) (= var8 var13)) (= var5 var12)) (= var4 var11)) (= var3 var10)) (= var2 var9)) (= var1 var0)) (or (and (<= 0 (+ var0 (- 1))) (= var7 1)) (and (not (<= 0 (+ var0 (- 1)))) (= var7 0))))))))) (inv_main26 var6 var8 0 var4 var3 var2 var1))))
(assert (forall ((var0 Int) (var1 AddrRange) (var2 Int) (var3 Int) (var4 Heap) (var5 Int) (var6 Int) (var7 Int) (var8 Int) (var9 AddrRange) (var10 Int) (var11 Int) (var12 Int) (var13 Int) (var14 Heap)) (or (not (and (inv_main17 var14 var13 var12 var11 var10 var9 var8) (and (<= 0 (+ (+ var7 (* (- 1) (+ var6 1))) (- 1))) (and (and (= var5 0) (is-O_Int (read var14 (nthAddrRange var9 var12)))) (and (and (and (and (and (and (and (= var4 var14) (= var7 var13)) (= var6 var12)) (= var3 var11)) (= var2 var10)) (= var1 var9)) (= var0 var8)) (= var5 (getInt (read var14 (nthAddrRange var9 var12))))))))) (inv_main14 var4 var7 (+ var6 1) var3 (+ var2 1) var1 var0))))
(assert (forall ((var0 Int) (var1 AddrRange) (var2 Int) (var3 Int) (var4 Heap) (var5 Int) (var6 Int) (var7 Int) (var8 Int) (var9 AddrRange) (var10 Int) (var11 Int) (var12 Int) (var13 Int) (var14 Heap)) (or (not (and (inv_main17 var14 var13 var12 var11 var10 var9 var8) (and (<= 0 (+ (+ var7 (* (- 1) (+ var6 1))) (- 1))) (and (and (not (= var5 0)) (is-O_Int (read var14 (nthAddrRange var9 var12)))) (and (and (and (and (and (and (and (= var4 var14) (= var7 var13)) (= var6 var12)) (= var3 var11)) (= var2 var10)) (= var1 var9)) (= var0 var8)) (= var5 (getInt (read var14 (nthAddrRange var9 var12))))))))) (inv_main14 var4 var7 (+ var6 1) var3 var2 var1 var0))))
(assert (forall ((var0 Int) (var1 Int) (var2 AddrRange) (var3 Int) (var4 Int) (var5 Int) (var6 Heap) (var7 Int) (var8 Int) (var9 AddrRange) (var10 Int) (var11 Int) (var12 Int) (var13 Int) (var14 Heap)) (or (not (and (inv_main3 var14 var13 var12 var11 var10 var9) (and (<= 0 (+ var8 (- 1))) (and (not (= var7 0)) (and (and (and (and (and (and (and (= var6 var14) (= var8 var13)) (= var5 var12)) (= var4 var11)) (= var3 var10)) (= var2 var9)) (= var1 var0)) (or (and (<= 0 (+ var0 (- 1))) (= var7 1)) (and (not (<= 0 (+ var0 (- 1)))) (= var7 0)))))))) (inv_main14 var6 var8 0 var4 var3 var2 var1))))
(assert (forall ((var0 Int) (var1 AddrRange) (var2 Int) (var3 Int) (var4 Int) (var5 Int) (var6 Heap) (var7 Int) (var8 Int) (var9 AddrRange) (var10 Int) (var11 Int) (var12 Int) (var13 Int) (var14 Heap)) (or (not (and (inv_main26 var14 var13 var12 var11 var10 var9 var8) (and (and (= var7 0) (is-O_Int (read var14 (nthAddrRange var9 var12)))) (and (and (and (and (and (and (and (= var6 var14) (= var5 var13)) (= var4 var12)) (= var3 var11)) (= var2 var10)) (= var1 var9)) (= var0 var8)) (= var7 (getInt (read var14 (nthAddrRange var9 var12)))))))) (inv_main28 var6 var5 var4 (+ var3 1) var2 var1 var0))))
(assert (forall ((var0 Int) (var1 AddrRange) (var2 Int) (var3 Int) (var4 Int) (var5 Int) (var6 Heap) (var7 Int) (var8 Int) (var9 AddrRange) (var10 Int) (var11 Int) (var12 Int) (var13 Int) (var14 Heap)) (or (not (and (inv_main26 var14 var13 var12 var11 var10 var9 var8) (and (and (not (= var7 0)) (is-O_Int (read var14 (nthAddrRange var9 var12)))) (and (and (and (and (and (and (and (= var6 var14) (= var5 var13)) (= var4 var12)) (= var3 var11)) (= var2 var10)) (= var1 var9)) (= var0 var8)) (= var7 (getInt (read var14 (nthAddrRange var9 var12)))))))) (inv_main28 var6 var5 var4 var3 var2 var1 var0))))
(assert (forall ((var0 Int) (var1 AddrRange) (var2 Int) (var3 Heap) (var4 Int) (var5 Int) (var6 Int) (var7 Int) (var8 AddrRange) (var9 Int) (var10 Int) (var11 Int) (var12 Int) (var13 Heap) (var14 Int)) (or (not (and (inv_main14 var13 var12 var11 var10 var9 var8 var7) (and (and (and (and (and (and (and (<= 0 (+ (+ 2 (* (- 1) (+ var5 (* (- 2) var14)))) (- 1))) (<= 0 (+ (+ 2 (* 1 (+ var5 (* (- 2) var14)))) (- 1)))) (or (not (<= 0 (+ (+ var5 (* (- 2) var14)) (- 1)))) (<= 0 (+ var5 (- 1))))) (or (not (<= 0 (+ (* (- 1) (+ var5 (* (- 2) var14))) (- 1)))) (<= 0 (+ (* (- 1) var5) (- 1))))) (<= 0 (+ (+ var6 (* (- 1) var14)) (- 1)))) (<= 0 (+ (+ 1 (* (- 1) var4)) (- 1)))) (and (is-O_Int (read var13 (nthAddrRange var8 var11))) (is-O_Int (read var13 (nthAddrRange var8 var11))))) (and (and (and (and (and (and (= var3 (write var13 (nthAddrRange var8 var11) (O_Int (+ var11 1)))) (= var5 var12)) (= var6 var11)) (= var2 var10)) (= var4 var9)) (= var1 var8)) (= var0 var7))))) (inv_main18 var3 var5 var6 var2 var4 var1 var0))))
(assert (forall ((var0 Int) (var1 AddrRange) (var2 Int) (var3 Int) (var4 Int) (var5 Int) (var6 Heap) (var7 Int) (var8 Int)) (or (not (and (inv_main18 var6 var5 var4 var3 var2 var1 var0) (and (is-O_Int (read var6 (nthAddrRange var1 var4))) (is-O_Int (read var6 (nthAddrRange var1 var4)))))) (or (not (and (and (and (and (or (and (<= 0 var0) (<= 0 (+ (+ var0 (* (- 1) var7)) (- 1)))) (and (not (<= 0 var0)) (<= 0 (+ (+ (* (- 1) var0) (* (- 1) var7)) (- 1))))) (or (and (<= 0 var0) (<= 0 (+ (+ var0 (* 1 var7)) (- 1)))) (and (not (<= 0 var0)) (<= 0 (+ (+ (* (- 1) var0) (* 1 var7)) (- 1)))))) (or (not (<= 0 (+ var7 (- 1)))) (<= 0 (+ var4 (- 1))))) (or (not (<= 0 (+ (* (- 1) var7) (- 1)))) (<= 0 (+ (* (- 1) var4) (- 1))))) (= var4 (+ (* var8 var0) var7)))) (inv_main17 (write var6 (nthAddrRange var1 var4) (O_Int var7)) var5 var4 var3 var2 var1 var0)))))
(assert (forall ((var0 Int) (var1 AddrRange) (var2 Int) (var3 Heap) (var4 Int) (var5 Int) (var6 Int) (var7 Int) (var8 AddrRange) (var9 Int) (var10 Int) (var11 Int) (var12 Int) (var13 Heap) (var14 Int)) (or (not (and (inv_main14 var13 var12 var11 var10 var9 var8 var7) (and (and (or (not (or (not (and (and (and (<= 0 (+ (+ 2 (* (- 1) (+ var5 (* (- 2) var14)))) (- 1))) (<= 0 (+ (+ 2 (* 1 (+ var5 (* (- 2) var14)))) (- 1)))) (or (not (<= 0 (+ (+ var5 (* (- 2) var14)) (- 1)))) (<= 0 (+ var5 (- 1))))) (or (not (<= 0 (+ (* (- 1) (+ var5 (* (- 2) var14))) (- 1)))) (<= 0 (+ (* (- 1) var5) (- 1)))))) (<= 0 (+ (+ var6 (* (- 1) var14)) (- 1))))) (not (<= 0 (+ (+ 1 (* (- 1) var4)) (- 1))))) (and (is-O_Int (read var13 (nthAddrRange var8 var11))) (is-O_Int (read var13 (nthAddrRange var8 var11))))) (and (and (and (and (and (and (= var3 (write var13 (nthAddrRange var8 var11) (O_Int (+ var11 1)))) (= var5 var12)) (= var6 var11)) (= var2 var10)) (= var4 var9)) (= var1 var8)) (= var0 var7))))) (inv_main17 var3 var5 var6 var2 var4 var1 var0))))
(assert (forall ((var0 Int) (var1 AddrRange) (var2 Int) (var3 Int) (var4 Int) (var5 Int) (var6 Heap)) (not (and (inv_main14 var6 var5 var4 var3 var2 var1 var0) (not (is-O_Int (read var6 (nthAddrRange var1 var4))))))))
(assert (forall ((var0 Int) (var1 AddrRange) (var2 Int) (var3 Int) (var4 Int) (var5 Int) (var6 Heap)) (not (and (inv_main14 var6 var5 var4 var3 var2 var1 var0) (and (is-O_Int (read var6 (nthAddrRange var1 var4))) (not (within var1 (nthAddrRange var1 var4))))))))
(assert (forall ((var0 Int) (var1 AddrRange) (var2 Int) (var3 Int) (var4 Int) (var5 Int) (var6 Heap)) (not (and (inv_main14 var6 var5 var4 var3 var2 var1 var0) (and (is-O_Int (read var6 (nthAddrRange var1 var4))) (not (is-O_Int (read var6 (nthAddrRange var1 var4)))))))))
(assert (forall ((var0 Int) (var1 AddrRange) (var2 Int) (var3 Int) (var4 Int) (var5 Int) (var6 Heap)) (not (and (inv_main18 var6 var5 var4 var3 var2 var1 var0) (not (is-O_Int (read var6 (nthAddrRange var1 var4))))))))
(assert (forall ((var0 Int) (var1 AddrRange) (var2 Int) (var3 Int) (var4 Int) (var5 Int) (var6 Heap)) (not (and (inv_main18 var6 var5 var4 var3 var2 var1 var0) (and (is-O_Int (read var6 (nthAddrRange var1 var4))) (not (within var1 (nthAddrRange var1 var4))))))))
(assert (forall ((var0 Int) (var1 AddrRange) (var2 Int) (var3 Int) (var4 Int) (var5 Int) (var6 Heap)) (not (and (inv_main18 var6 var5 var4 var3 var2 var1 var0) (and (is-O_Int (read var6 (nthAddrRange var1 var4))) (not (is-O_Int (read var6 (nthAddrRange var1 var4)))))))))
(assert (forall ((var0 Int) (var1 AddrRange) (var2 Int) (var3 Int) (var4 Int) (var5 Int) (var6 Heap)) (not (and (inv_main17 var6 var5 var4 var3 var2 var1 var0) (not (is-O_Int (read var6 (nthAddrRange var1 var4))))))))
(assert (forall ((var0 Int) (var1 AddrRange) (var2 Int) (var3 Int) (var4 Int) (var5 Int) (var6 Heap)) (not (and (inv_main17 var6 var5 var4 var3 var2 var1 var0) (and (is-O_Int (read var6 (nthAddrRange var1 var4))) (not (within var1 (nthAddrRange var1 var4))))))))
(assert (forall ((var0 Int) (var1 AddrRange) (var2 Int) (var3 Int) (var4 Int) (var5 Int) (var6 Heap)) (not (and (inv_main26 var6 var5 var4 var3 var2 var1 var0) (not (is-O_Int (read var6 (nthAddrRange var1 var4))))))))
(assert (forall ((var0 Int) (var1 AddrRange) (var2 Int) (var3 Int) (var4 Int) (var5 Int) (var6 Heap)) (not (and (inv_main26 var6 var5 var4 var3 var2 var1 var0) (and (is-O_Int (read var6 (nthAddrRange var1 var4))) (not (within var1 (nthAddrRange var1 var4))))))))
(assert (forall ((var0 Int) (var1 AddrRange) (var2 Int) (var3 Int) (var4 Int) (var5 Int) (var6 Heap)) (not (and (inv_main28 var6 var5 var4 var3 var2 var1 var0) (not (<= 0 (+ (+ 2 (* (- 1) var3)) (- 1))))))))
(check-sat)
